Name:		mgval_0.45_5C
Optimal value:	-1
#Vehicles:	5
Capacity:	130
Depot Node:	1
#Nodes:		34
#Edges:		17
#Arcs:		81
#Required N:	26
#Required E:	9
#Required A:	44

ReN.	DEMAND	S. COST
N2	28	28
N3	11	11
N4	12	12
N6	2	2
N7	9	9
N8	5	5
N9	8	8
N11	30	30
N12	20	20
N13	12	12
N14	5	5
N15	10	10
N16	9	9
N17	9	9
N19	6	6
N20	8	8
N21	6	6
N22	12	12
N23	3	3
N24	27	27
N25	8	8
N26	13	13
N27	3	3
N28	20	20
N29	7	7
N33	12	12

ReE.	FROM N.	TO N.	T. COST	DEMAND	S. COST
E9	21	27	7	11	11
E10	9	10	3	7	7
E11	10	11	8	12	12
E12	22	23	1	2	2
E13	8	9	7	8	8
E14	20	26	3	7	7
E15	6	18	9	18	18
E16	13	14	4	8	8
E17	4	10	4	6	6

EDGE	FROM N.	TO N.	T. COST
NrE1	12	18	5
NrE2	3	10	2
NrE3	24	34	10
NrE4	28	33	3
NrE5	12	19	4
NrE6	28	34	2
NrE7	29	30	4
NrE8	8	14	2

ReA.	FROM N.	TO N.	T. COST	DEMAND	S. COST
A38	15	22	9	7	7
A39	16	17	5	8	8
A40	15	14	1	3	3
A41	23	28	5	2	2
A42	30	25	5	6	6
A43	31	26	9	12	12
A44	31	30	6	4	4
A45	28	22	4	4	4
A46	29	18	9	8	8
A47	25	30	5	5	5
A48	8	2	8	7	7
A49	15	9	5	4	4
A50	21	22	5	4	4
A51	31	32	3	7	7
A52	7	13	5	3	3
A53	19	13	6	4	4
A54	19	18	7	7	7
A55	6	1	2	3	3
A56	12	6	7	6	6
A57	14	15	1	3	3
A58	16	23	9	16	16
A59	32	27	5	3	3
A60	13	7	5	3	3
A61	6	7	9	6	6
A62	4	11	10	7	7
A63	18	29	9	7	7
A64	6	12	7	5	5
A65	30	31	6	4	4
A66	22	21	5	4	4
A67	17	24	9	6	6
A68	13	19	6	4	4
A69	34	33	1	2	2
A70	7	6	9	6	6
A71	3	4	3	3	3
A72	25	29	7	9	9
A73	12	13	2	3	3
A74	5	11	4	3	3
A75	27	28	10	13	13
A76	3	2	5	3	3
A77	10	16	2	3	3
A78	20	19	6	6	6
A79	18	19	7	7	7
A80	4	3	3	4	4
A81	19	20	6	6	6

ARC	FROM N.	TO N.	T. COST
NrA1	13	12	2
NrA2	2	8	8
NrA3	19	25	5
NrA4	13	2	9
NrA5	33	32	5
NrA6	15	16	5
NrA7	25	26	9
NrA8	28	23	5
NrA9	26	25	9
NrA10	1	2	10
NrA11	3	9	6
NrA12	4	5	9
NrA13	33	34	1
NrA14	1	7	8
NrA15	20	14	3
NrA16	24	23	5
NrA17	16	15	5
NrA18	21	15	4
NrA19	1	6	2
NrA20	16	10	2
NrA21	9	15	5
NrA22	22	28	4
NrA23	23	24	5
NrA24	22	15	9
NrA25	2	13	9
NrA26	11	5	4
NrA27	20	21	2
NrA28	2	3	5
NrA29	27	32	5
NrA30	26	27	4
NrA31	24	17	9
NrA32	11	4	10
NrA33	11	24	15
NrA34	15	21	4
NrA35	17	11	7
NrA36	14	20	3
NrA37	9	3	6
